p cnf 15 20
-5 -3 12 0
15 -10 -7 0
1 11 -8 0
-7 12 1 0
-12 -14 11 0
6 10 -3 0
-13 4 6 0
-4 -11 -2 0
-14 7 6 0
5 11 13 0
-14 3 -11 0
-7 4 -13 0
11 3 5 0
-4 13 6 0
5 -15 -9 0
8 9 15 0
11 12 -9 0
7 -6 -14 0
-4 -9 3 0
3 6 11 0
